69
150
105	4
103	4
102	4
101	5
100	3
99	1
98	1
97	2
96	4
95	1
93	2
92	3
91	3
90	5
89	1
88	2
87	1
85	4
84	2
83	1
82	5
80	2
79	4
78	2
77	3
76	3
75	3
74	4
73	2
72	4
71	3
70	3
69	4
68	3
67	6
66	2
65	2
63	2
62	4
61	3
60	3
59	8
58	1
57	2
56	5
55	9
53	2
52	1
51	5
50	2
49	4
48	2
47	3
46	1
45	2
44	2
43	4
42	4
40	2
39	1
38	1
37	3
36	4
35	1
34	1
33	3
32	4
31	2
30	1
